WARNING: for repeatability, setting FPU to use double precision
============================[ Problem Statistics ]=============================
|                                                                             |
|  Number of variables:           601                                         |
|  Number of clauses:            2968                                         |
|  Parse time:                   0.00 s                                       |
|                                                                             |
============================[ Search Statistics ]==============================
| Conflicts |          ORIGINAL         |          LEARNT          | Progress |
|           |    Vars  Clauses Literals |    Limit  Clauses Lit/Cl |          |
===============================================================================
===============================================================================
restarts              : 1
conflicts             : 56             (inf /sec)
decisions             : 669            (0.00 % random) (inf /sec)
propagations          : 2843           (inf /sec)
conflict literals     : 300            (18.03 % deleted)
Memory used           : 5.00 MB
CPU time              : 0 s

UNSATISFIABLE
